100
1000
208
208
208
203
202
201
199
195
195
195
192
191
190
181
175
172
172
171
166
163
162
159
158
158
156
155
154
148
147
145
143
139
135
133
131
131
131
131
130
129
128
126
125
123
123
122
122
121
120
118
117
117
116
110
106
103
103
99
97
94
92
88
86
86
83
81
79
78
77
77
77
76
71
71
69
62
61
59
58
57
57
57
57
54
46
46
43
42
38
37
35
33
31
23
21
17
14
14
14
13
